5031 9619
6768 7382
7360 8947
714 4858
5699 8577
954 6490
7564 5040
3201 5364
6177 8964
1029 6724
6351 250
2474 5215
368 7610
8840 7545
1542 5247
2142 4388
3601 3070
7625 8814
4014 1985
455 7672
3882 2952
5015 210
4225 1064
836 5682
2739 4237
4231 9164
6304 1797
9626 7498
84 5754
5680 8306
1736 4840
2925 3631
4837 120
2398 4779
2129 4228
2476 1602
5077 4104
3324 3227
9933 6910
8358 685
3143 8292
4505 4662
2666 3062
1883 6823
2985 4746
7494 253
3334 6950
5747 3803
4255 639
4038 2737
